% demand
num_movements = 32;
loading_factor = [1450, 1450, 1750, 1750, 1800, 1150, 1350, 1300, 800, 1450, 1100, 1800, 2000, 950, 1600, 1350, 1000, 1850, 800, 900, 900, 1800, 1850, 800, 1950, 1250, 1100, 1150, 1750, 1050, 850, 1450];
pickup_time = [0, 0, 0, 0, 0, 0, 1, 2, 2, 2, 2, 2, 2, 2, 3, 3, 3, 3, 4, 4, 4, 6, 7, 7, 7, 8, 9, 9, 9, 9, 9, 11];
delivery_time = [1, 1, 1, 1, 1, 1, 3, 5, 3, 7, 7, 3, 3, 4, 7, 12, 7, 4, 11, 9, 11, 9, 9, 11, 8, 12, 11, 11, 11, 11, 12, 12];

% transporter definition
total_capacity = 11000;
num_decks = 4;
capacity = [3000, 3000, 1000, 4000];

% ways out of decks
num_ways_out = 2;
paths_out = array3d(decks, ways_out, decks, [
% ways out of deck d1
2, 4, 0, 0, 3, 4, 0, 0, 

% ways out of deck d2
4, 0, 0, 0, 0, 0, 0, 0,	

% ways out of deck d3
4, 0, 0, 0, 0, 0, 0, 0,	

% ways out of deck d4
0, 0, 0, 0,	0, 0, 0, 0,	

]);

